* #variable= 154 #constraint= 69
min: +19 x1 +6 x2 +12 x3 +8 x4 +41 x5 +19 x6 +22 x7 +29 x8 +18 x9 +46 x10 +6 x11 +22 x12 +7 x13 +14 x14 +34 x15 +12 x16 +29 x17 +7 x18 +20 x19 +31 x20 +8 x21 +18 x22 +14 x23 +20 x24 +49 x25 +41 x26 +46 x27 +34 x28 +31 x29 +49 x30 ;

+19 x1 +6 x2 +12 x3 +8 x4 +41 x5 +19 x6 +22 x7 +29 x8 +18 x9 +46 x10 +6 x11 +22 x12 +7 x13 +14 x14 +34 x15 +12 x16 +29 x17 +7 x18 +20 x19 +31 x20 +8 x21 +18 x22 +14 x23 +20 x24 +49 x25 +41 x26 +46 x27 +34 x28 +31 x29 +49 x30 >= 0 ;

+1 x1 +1 x2 +1 x3 +1 x4 +1 x5 = 1 ;
+1 x6 +1 x7 +1 x8 +1 x9 +1 x10 = 1 ;
+1 x11 +1 x12 +1 x13 +1 x14 +1 x15 = 1 ;
+1 x16 +1 x17 +1 x18 +1 x19 +1 x20 = 1 ;
+1 x21 +1 x22 +1 x23 +1 x24 +1 x25 = 1 ;
+1 x26 +1 x27 +1 x28 +1 x29 +1 x30 = 1 ;

+1 x6 +1 x11 +1 x16 +1 x21 +1 x26 = 1 ;
+1 x1 +1 x12 +1 x17 +1 x22 +1 x27 = 1 ;
+1 x2 +1 x7 +1 x18 +1 x23 +1 x28 = 1 ;
+1 x3 +1 x8 +1 x13 +1 x24 +1 x29 = 1 ;
+1 x4 +1 x9 +1 x14 +1 x19 +1 x30 = 1 ;
+1 x5 +1 x10 +1 x15 +1 x20 +1 x25 = 1 ;

+1 x31 +2 x32 +4 x33 +8 x34  >= 0 ;
+1 x35 +2 x36 +4 x37 +8 x38  >= 0 ;
+1 x39 +2 x40 +4 x41 +8 x42  >= 0 ;
+1 x43 +2 x44 +4 x45 +8 x46  >= 0 ;
+1 x47 +2 x48 +4 x49 +8 x50  >= 0 ;
+1 x51 +2 x52 +4 x53 +8 x54  >= 0 ;


+1 x55 +2 x56 +4 x57 +8 x58  >= 0 ;
+1 x31 +2 x32 +4 x33 +8 x34 -1 x35 -2 x36 -4 x37 -8 x38 +6 x1 +1 x55 +2 x56 +4 x57 +8 x58  = 5 ;

+1 x59 +2 x60 +4 x61 +8 x62  >= 0 ;
+1 x31 +2 x32 +4 x33 +8 x34 -1 x39 -2 x40 -4 x41 -8 x42 +6 x2 +1 x59 +2 x60 +4 x61 +8 x62  = 5 ;

+1 x63 +2 x64 +4 x65 +8 x66  >= 0 ;
+1 x31 +2 x32 +4 x33 +8 x34 -1 x43 -2 x44 -4 x45 -8 x46 +6 x3 +1 x63 +2 x64 +4 x65 +8 x66  = 5 ;

+1 x67 +2 x68 +4 x69 +8 x70  >= 0 ;
+1 x31 +2 x32 +4 x33 +8 x34 -1 x47 -2 x48 -4 x49 -8 x50 +6 x4 +1 x67 +2 x68 +4 x69 +8 x70  = 5 ;

+1 x71 +2 x72 +4 x73 +8 x74  >= 0 ;
+1 x31 +2 x32 +4 x33 +8 x34 -1 x51 -2 x52 -4 x53 -8 x54 +6 x5 +1 x71 +2 x72 +4 x73 +8 x74  = 5 ;

+1 x75 +2 x76 +4 x77 +8 x78  >= 0 ;
+1 x35 +2 x36 +4 x37 +8 x38 -1 x31 -2 x32 -4 x33 -8 x34 +6 x6 +1 x75 +2 x76 +4 x77 +8 x78  = 5 ;

+1 x79 +2 x80 +4 x81 +8 x82  >= 0 ;
+1 x35 +2 x36 +4 x37 +8 x38 -1 x39 -2 x40 -4 x41 -8 x42 +6 x7 +1 x79 +2 x80 +4 x81 +8 x82  = 5 ;

+1 x83 +2 x84 +4 x85 +8 x86  >= 0 ;
+1 x35 +2 x36 +4 x37 +8 x38 -1 x43 -2 x44 -4 x45 -8 x46 +6 x8 +1 x83 +2 x84 +4 x85 +8 x86  = 5 ;

+1 x87 +2 x88 +4 x89 +8 x90  >= 0 ;
+1 x35 +2 x36 +4 x37 +8 x38 -1 x47 -2 x48 -4 x49 -8 x50 +6 x9 +1 x87 +2 x88 +4 x89 +8 x90  = 5 ;

+1 x91 +2 x92 +4 x93 +8 x94  >= 0 ;
+1 x35 +2 x36 +4 x37 +8 x38 -1 x51 -2 x52 -4 x53 -8 x54 +6 x10 +1 x91 +2 x92 +4 x93 +8 x94  = 5 ;

+1 x95 +2 x96 +4 x97 +8 x98  >= 0 ;
+1 x39 +2 x40 +4 x41 +8 x42 -1 x31 -2 x32 -4 x33 -8 x34 +6 x11 +1 x95 +2 x96 +4 x97 +8 x98  = 5 ;

+1 x99 +2 x100 +4 x101 +8 x102  >= 0 ;
+1 x39 +2 x40 +4 x41 +8 x42 -1 x35 -2 x36 -4 x37 -8 x38 +6 x12 +1 x99 +2 x100 +4 x101 +8 x102  = 5 ;

+1 x103 +2 x104 +4 x105 +8 x106  >= 0 ;
+1 x39 +2 x40 +4 x41 +8 x42 -1 x43 -2 x44 -4 x45 -8 x46 +6 x13 +1 x103 +2 x104 +4 x105 +8 x106  = 5 ;

+1 x107 +2 x108 +4 x109 +8 x110  >= 0 ;
+1 x39 +2 x40 +4 x41 +8 x42 -1 x47 -2 x48 -4 x49 -8 x50 +6 x14 +1 x107 +2 x108 +4 x109 +8 x110  = 5 ;

+1 x111 +2 x112 +4 x113 +8 x114  >= 0 ;
+1 x39 +2 x40 +4 x41 +8 x42 -1 x51 -2 x52 -4 x53 -8 x54 +6 x15 +1 x111 +2 x112 +4 x113 +8 x114  = 5 ;

+1 x115 +2 x116 +4 x117 +8 x118  >= 0 ;
+1 x43 +2 x44 +4 x45 +8 x46 -1 x31 -2 x32 -4 x33 -8 x34 +6 x16 +1 x115 +2 x116 +4 x117 +8 x118  = 5 ;

+1 x119 +2 x120 +4 x121 +8 x122  >= 0 ;
+1 x43 +2 x44 +4 x45 +8 x46 -1 x35 -2 x36 -4 x37 -8 x38 +6 x17 +1 x119 +2 x120 +4 x121 +8 x122  = 5 ;

+1 x123 +2 x124 +4 x125 +8 x126  >= 0 ;
+1 x43 +2 x44 +4 x45 +8 x46 -1 x39 -2 x40 -4 x41 -8 x42 +6 x18 +1 x123 +2 x124 +4 x125 +8 x126  = 5 ;

+1 x127 +2 x128 +4 x129 +8 x130  >= 0 ;
+1 x43 +2 x44 +4 x45 +8 x46 -1 x47 -2 x48 -4 x49 -8 x50 +6 x19 +1 x127 +2 x128 +4 x129 +8 x130  = 5 ;

+1 x131 +2 x132 +4 x133 +8 x134  >= 0 ;
+1 x43 +2 x44 +4 x45 +8 x46 -1 x51 -2 x52 -4 x53 -8 x54 +6 x20 +1 x131 +2 x132 +4 x133 +8 x134  = 5 ;

+1 x135 +2 x136 +4 x137 +8 x138  >= 0 ;
+1 x47 +2 x48 +4 x49 +8 x50 -1 x31 -2 x32 -4 x33 -8 x34 +6 x21 +1 x135 +2 x136 +4 x137 +8 x138  = 5 ;

+1 x139 +2 x140 +4 x141 +8 x142  >= 0 ;
+1 x47 +2 x48 +4 x49 +8 x50 -1 x35 -2 x36 -4 x37 -8 x38 +6 x22 +1 x139 +2 x140 +4 x141 +8 x142  = 5 ;

+1 x143 +2 x144 +4 x145 +8 x146  >= 0 ;
+1 x47 +2 x48 +4 x49 +8 x50 -1 x39 -2 x40 -4 x41 -8 x42 +6 x23 +1 x143 +2 x144 +4 x145 +8 x146  = 5 ;

+1 x147 +2 x148 +4 x149 +8 x150  >= 0 ;
+1 x47 +2 x48 +4 x49 +8 x50 -1 x43 -2 x44 -4 x45 -8 x46 +6 x24 +1 x147 +2 x148 +4 x149 +8 x150  = 5 ;

+1 x151 +2 x152 +4 x153 +8 x154  >= 0 ;
+1 x47 +2 x48 +4 x49 +8 x50 -1 x51 -2 x52 -4 x53 -8 x54 +6 x25 +1 x151 +2 x152 +4 x153 +8 x154  = 5 ;